TYPE : Vertex Cover
DIMENSION: 32
EDGE_DATA_SECTION:
0 2
0 6
0 8
0 12
0 14
0 23
0 24
0 28
0 29
0 31
1 2
1 6
1 19
1 21
1 24
1 25
1 27
1 29
1 30
2 3
2 5
2 6
2 9
2 10
2 18
2 22
2 25
2 26
2 28
3 7
3 14
3 17
3 26
4 6
4 7
4 9
4 10
4 12
4 15
4 19
4 21
4 23
4 24
4 29
4 31
5 6
5 8
5 14
5 19
5 24
5 26
5 31
6 10
6 19
6 20
6 27
7 13
7 16
7 17
7 26
7 28
8 9
8 10
8 11
8 13
8 15
8 18
8 19
8 21
8 27
9 11
9 12
9 14
9 15
9 19
9 25
9 28
10 18
10 27
11 12
11 16
11 19
11 20
11 21
11 26
12 13
12 17
12 27
12 30
13 21
13 22
13 24
13 31
14 16
14 17
14 18
14 20
14 22
14 24
14 27
14 31
15 21
15 23
15 28
16 18
17 20
17 23
17 26
17 27
17 31
18 22
18 24
18 25
18 30
20 22
20 25
20 29
21 27
21 28
21 29
21 30
22 23
23 24
23 29
24 25
24 28
24 30
25 26
25 27
25 29
27 29
28 29
28 31
-1
VERTEX_DEGREE:
10.0 9.0 12.0 5.0 12.0 8.0 9.0 7.0 11.0 10.0 6.0 8.0 8.0 7.0 12.0 6.0 4.0 9.0 9.0 7.0 7.0 10.0 6.0 7.0 11.0 9.0 7.0 10.0 9.0 9.0 5.0 7.0
VERTEX_COVER:
0 1 2 4 5 6 7 8 9 11 13 14 17 18 20 21 23 25 26 27 28 30
EOF
